4	143	143	0	0	0
5	144	103	0	0	0
6	236	184	0	16	16
7	279	240	0	16	16
8	267	244	0	16	16
9	261	225	0	31	31
10	385	250	0	0	0
11	438	306	0	187	187
12	377	341	0	15	15
13	541	342	0	31	31
14	551	408	0	32	32
15	675	386	0	47	47
16	560	400	0	31	31
17	656	422	0	94	94
18	634	484	0	203	203
19	875	500	0	78	78
